p cnf 1069 3026
1 0
-2 0
-3 0
-4 0
-5 0
-6 0
-7 0
-8 0
-9 0
-10 0
-11 0
-12 0
-13 0
-14 0
-15 0
-16 0
-17 0
-18 0
-19 0
-20 0
-21 0
-22 0
-23 0
-24 0
-25 0
-26 0
-27 0
-28 0
-29 0
-30 0
-31 0
-32 0
-33 0
-34 0
-35 0
-36 0
-37 0
-38 0
-39 0
-40 0
-41 0
-42 0
-43 0
-44 0
-45 0
-46 0
-47 0
-48 0
-49 0
-50 0
1 -51 0
-1 51 0
52 53 0
54 53 0
55 53 0
56 53 0
57 53 0
58 53 0
59 53 0
60 53 0
61 53 0
-62 0
-2 53 -63 0
2 -53 -63 0
63 -53 -2 0
2 53 63 0
-63 0
54 64 0
55 64 0
56 64 0
57 64 0
58 64 0
59 64 0
60 64 0
61 64 0
-65 0
-66 64 -67 0
66 -64 -67 0
67 -64 -66 0
66 64 67 0
-67 0
55 68 0
56 68 0
57 68 0
58 68 0
59 68 0
60 68 0
61 68 0
-69 0
-70 68 -71 0
70 -68 -71 0
71 -68 -70 0
70 68 71 0
-71 0
56 72 0
57 72 0
58 72 0
59 72 0
60 72 0
61 72 0
-73 0
-74 72 -75 0
74 -72 -75 0
75 -72 -74 0
74 72 75 0
-75 0
57 76 0
58 76 0
59 76 0
60 76 0
61 76 0
-77 0
-3 76 -78 0
3 -76 -78 0
78 -76 -3 0
3 76 78 0
-78 0
58 79 0
61 79 0
57 79 0
59 79 0
60 79 0
-80 0
-81 79 -82 0
81 -79 -82 0
82 -79 -81 0
81 79 82 0
-82 0
-83 79 -84 0
83 -79 -84 0
84 -79 -83 0
83 79 84 0
-84 0
-85 79 -86 0
85 -79 -86 0
86 -79 -85 0
85 79 86 0
-86 0
-87 79 -88 0
87 -79 -88 0
88 -79 -87 0
87 79 88 0
-88 0
89 90 0
91 90 0
92 90 0
93 90 0
94 90 0
95 90 0
96 90 0
97 90 0
98 90 0
99 90 0
-100 0
-4 90 -101 0
4 -90 -101 0
101 -90 -4 0
4 90 101 0
-101 0
91 102 0
92 102 0
93 102 0
94 102 0
95 102 0
96 102 0
97 102 0
98 102 0
99 102 0
-103 0
-104 102 -105 0
104 -102 -105 0
105 -102 -104 0
104 102 105 0
-105 0
92 106 0
93 106 0
94 106 0
95 106 0
96 106 0
97 106 0
98 106 0
99 106 0
-107 0
-108 106 -109 0
108 -106 -109 0
109 -106 -108 0
108 106 109 0
-109 0
93 110 0
94 110 0
95 110 0
96 110 0
97 110 0
98 110 0
99 110 0
-111 0
-112 110 -113 0
112 -110 -113 0
113 -110 -112 0
112 110 113 0
-113 0
94 114 0
95 114 0
96 114 0
97 114 0
98 114 0
99 114 0
-115 0
-116 114 -117 0
116 -114 -117 0
117 -114 -116 0
116 114 117 0
-117 0
95 118 0
96 118 0
97 118 0
98 118 0
99 118 0
-119 0
-120 118 -121 0
120 -118 -121 0
121 -118 -120 0
120 118 121 0
-121 0
96 122 0
97 122 0
98 122 0
99 122 0
-123 0
-124 122 -125 0
124 -122 -125 0
125 -122 -124 0
124 122 125 0
-125 0
97 126 0
98 126 0
96 126 0
99 126 0
-127 0
-128 126 -129 0
128 -126 -129 0
129 -126 -128 0
128 126 129 0
-129 0
-130 126 -131 0
130 -126 -131 0
131 -126 -130 0
130 126 131 0
-131 0
-132 126 -133 0
132 -126 -133 0
133 -126 -132 0
132 126 133 0
-133 0
134 135 0
136 135 0
137 135 0
138 135 0
139 135 0
140 135 0
141 135 0
142 135 0
143 135 0
144 135 0
145 135 0
-146 0
-5 135 -147 0
5 -135 -147 0
147 -135 -5 0
5 135 147 0
-147 0
136 148 0
137 148 0
138 148 0
139 148 0
140 148 0
141 148 0
142 148 0
143 148 0
144 148 0
145 148 0
-149 0
-150 148 -151 0
150 -148 -151 0
151 -148 -150 0
150 148 151 0
-151 0
137 152 0
138 152 0
139 152 0
140 152 0
141 152 0
142 152 0
143 152 0
144 152 0
145 152 0
-153 0
-154 152 -155 0
154 -152 -155 0
155 -152 -154 0
154 152 155 0
-155 0
138 156 0
139 156 0
140 156 0
141 156 0
142 156 0
143 156 0
144 156 0
145 156 0
-157 0
-158 156 -159 0
158 -156 -159 0
159 -156 -158 0
158 156 159 0
-159 0
139 160 0
140 160 0
141 160 0
142 160 0
143 160 0
144 160 0
145 160 0
-161 0
-162 160 -163 0
162 -160 -163 0
163 -160 -162 0
162 160 163 0
-163 0
140 164 0
141 164 0
142 164 0
143 164 0
144 164 0
145 164 0
-165 0
-166 164 -167 0
166 -164 -167 0
167 -164 -166 0
166 164 167 0
-167 0
144 168 0
145 168 0
140 168 0
141 168 0
142 168 0
143 168 0
-169 0
-170 168 -171 0
170 -168 -171 0
171 -168 -170 0
170 168 171 0
-171 0
-172 168 -173 0
172 -168 -173 0
173 -168 -172 0
172 168 173 0
-173 0
-174 168 -175 0
174 -168 -175 0
175 -168 -174 0
174 168 175 0
-175 0
-176 168 -177 0
176 -168 -177 0
177 -168 -176 0
176 168 177 0
-177 0
-178 168 -179 0
178 -168 -179 0
179 -168 -178 0
178 168 179 0
-179 0
58 180 0
61 180 0
181 180 0
182 180 0
55 180 0
56 180 0
57 180 0
59 180 0
60 180 0
-183 0
-6 180 -184 0
6 -180 -184 0
184 -180 -6 0
6 180 184 0
-184 0
58 185 0
61 185 0
182 185 0
55 185 0
56 185 0
57 185 0
59 185 0
60 185 0
-186 0
-187 185 -188 0
187 -185 -188 0
188 -185 -187 0
187 185 188 0
-188 0
189 190 0
191 190 0
192 190 0
193 190 0
194 190 0
195 190 0
-196 0
-7 190 -197 0
7 -190 -197 0
197 -190 -7 0
7 190 197 0
-197 0
191 198 0
192 198 0
193 198 0
194 198 0
195 198 0
-199 0
-200 198 -201 0
200 -198 -201 0
201 -198 -200 0
200 198 201 0
-201 0
-202 198 -203 0
202 -198 -203 0
203 -198 -202 0
202 198 203 0
-203 0
-204 198 -205 0
204 -198 -205 0
205 -198 -204 0
204 198 205 0
-205 0
-206 198 -207 0
206 -198 -207 0
207 -198 -206 0
206 198 207 0
-207 0
-208 198 -209 0
208 -198 -209 0
209 -198 -208 0
208 198 209 0
-209 0
210 211 0
212 211 0
213 211 0
214 211 0
215 211 0
216 211 0
217 211 0
218 211 0
219 211 0
220 211 0
221 211 0
222 211 0
-223 0
-8 211 -224 0
8 -211 -224 0
224 -211 -8 0
8 211 224 0
-224 0
212 225 0
213 225 0
214 225 0
215 225 0
216 225 0
217 225 0
218 225 0
219 225 0
220 225 0
221 225 0
222 225 0
-226 0
-227 225 -228 0
227 -225 -228 0
228 -225 -227 0
227 225 228 0
-228 0
213 229 0
214 229 0
215 229 0
216 229 0
217 229 0
218 229 0
219 229 0
220 229 0
221 229 0
222 229 0
-230 0
-231 229 -232 0
231 -229 -232 0
232 -229 -231 0
231 229 232 0
-232 0
214 233 0
215 233 0
216 233 0
217 233 0
218 233 0
219 233 0
220 233 0
221 233 0
222 233 0
-234 0
-235 233 -236 0
235 -233 -236 0
236 -233 -235 0
235 233 236 0
-236 0
215 237 0
216 237 0
217 237 0
218 237 0
219 237 0
220 237 0
221 237 0
222 237 0
-238 0
-239 237 -240 0
239 -237 -240 0
240 -237 -239 0
239 237 240 0
-240 0
216 241 0
217 241 0
218 241 0
219 241 0
220 241 0
221 241 0
222 241 0
-242 0
-243 241 -244 0
243 -241 -244 0
244 -241 -243 0
243 241 244 0
-244 0
217 245 0
218 245 0
219 245 0
220 245 0
221 245 0
222 245 0
-246 0
-247 245 -248 0
247 -245 -248 0
248 -245 -247 0
247 245 248 0
-248 0
218 249 0
219 249 0
220 249 0
221 249 0
217 249 0
222 249 0
-250 0
-251 249 -252 0
251 -249 -252 0
252 -249 -251 0
251 249 252 0
-252 0
-253 249 -254 0
253 -249 -254 0
254 -249 -253 0
253 249 254 0
-254 0
-255 249 -256 0
255 -249 -256 0
256 -249 -255 0
255 249 256 0
-256 0
-257 249 -258 0
257 -249 -258 0
258 -249 -257 0
257 249 258 0
-258 0
-259 249 -260 0
259 -249 -260 0
260 -249 -259 0
259 249 260 0
-260 0
261 262 0
263 262 0
264 262 0
265 262 0
266 262 0
267 262 0
268 262 0
-269 0
-9 262 -270 0
9 -262 -270 0
270 -262 -9 0
9 262 270 0
-270 0
263 271 0
264 271 0
265 271 0
266 271 0
267 271 0
268 271 0
-272 0
-273 271 -274 0
273 -271 -274 0
274 -271 -273 0
273 271 274 0
-274 0
264 275 0
265 275 0
266 275 0
267 275 0
268 275 0
-276 0
-10 275 -277 0
10 -275 -277 0
277 -275 -10 0
10 275 277 0
-277 0
265 278 0
266 278 0
267 278 0
268 278 0
-279 0
-280 278 -281 0
280 -278 -281 0
281 -278 -280 0
280 278 281 0
-281 0
266 282 0
267 282 0
268 282 0
-268 -266 -267 -282 0
-283 282 -284 0
283 -282 -284 0
284 -282 -283 0
283 282 284 0
-284 0
267 285 0
268 285 0
-268 -267 -285 0
-11 285 -286 0
11 -285 -286 0
286 -285 -11 0
11 285 286 0
-286 0
268 287 0
267 287 0
-268 -267 -287 0
-288 287 -289 0
288 -287 -289 0
289 -287 -288 0
288 287 289 0
-289 0
290 291 0
292 291 0
293 291 0
294 291 0
295 291 0
296 291 0
297 291 0
298 291 0
299 291 0
300 291 0
301 291 0
302 291 0
-303 0
-12 291 -304 0
12 -291 -304 0
304 -291 -12 0
12 291 304 0
-304 0
292 305 0
293 305 0
294 305 0
295 305 0
296 305 0
297 305 0
298 305 0
299 305 0
300 305 0
301 305 0
302 305 0
-306 0
-307 305 -308 0
307 -305 -308 0
308 -305 -307 0
307 305 308 0
-308 0
293 309 0
294 309 0
295 309 0
296 309 0
297 309 0
298 309 0
299 309 0
300 309 0
301 309 0
302 309 0
-310 0
-311 309 -312 0
311 -309 -312 0
312 -309 -311 0
311 309 312 0
-312 0
294 313 0
295 313 0
296 313 0
297 313 0
298 313 0
299 313 0
300 313 0
301 313 0
302 313 0
-314 0
-315 313 -316 0
315 -313 -316 0
316 -313 -315 0
315 313 316 0
-316 0
295 317 0
296 317 0
297 317 0
298 317 0
299 317 0
300 317 0
301 317 0
302 317 0
-318 0
-319 317 -320 0
319 -317 -320 0
320 -317 -319 0
319 317 320 0
-320 0
296 321 0
297 321 0
298 321 0
299 321 0
300 321 0
301 321 0
302 321 0
-322 0
-323 321 -324 0
323 -321 -324 0
324 -321 -323 0
323 321 324 0
-324 0
297 325 0
298 325 0
299 325 0
300 325 0
301 325 0
302 325 0
-326 0
-327 325 -328 0
327 -325 -328 0
328 -325 -327 0
327 325 328 0
-328 0
297 329 0
298 329 0
300 329 0
299 329 0
301 329 0
302 329 0
-330 0
-331 329 -332 0
331 -329 -332 0
332 -329 -331 0
331 329 332 0
-332 0
-333 329 -334 0
333 -329 -334 0
334 -329 -333 0
333 329 334 0
-334 0
-335 329 -336 0
335 -329 -336 0
336 -329 -335 0
335 329 336 0
-336 0
-337 329 -338 0
337 -329 -338 0
338 -329 -337 0
337 329 338 0
-338 0
-339 329 -340 0
339 -329 -340 0
340 -329 -339 0
339 329 340 0
-340 0
97 341 0
98 341 0
342 341 0
96 341 0
99 341 0
343 341 0
344 341 0
345 341 0
-346 0
-13 341 -347 0
13 -341 -347 0
347 -341 -13 0
13 341 347 0
-347 0
97 348 0
98 348 0
342 348 0
96 348 0
99 348 0
344 348 0
345 348 0
-349 0
-350 348 -351 0
350 -348 -351 0
351 -348 -350 0
350 348 351 0
-351 0
97 352 0
98 352 0
342 352 0
96 352 0
99 352 0
345 352 0
-353 0
-354 352 -355 0
354 -352 -355 0
355 -352 -354 0
354 352 355 0
-355 0
97 356 0
98 356 0
342 356 0
96 356 0
99 356 0
-357 0
-358 356 -359 0
358 -356 -359 0
359 -356 -358 0
358 356 359 0
-359 0
297 360 0
298 360 0
300 360 0
361 360 0
362 360 0
363 360 0
299 360 0
301 360 0
302 360 0
364 360 0
365 360 0
-366 0
-14 360 -367 0
14 -360 -367 0
367 -360 -14 0
14 360 367 0
-367 0
297 368 0
298 368 0
300 368 0
361 368 0
362 368 0
363 368 0
299 368 0
301 368 0
302 368 0
365 368 0
-369 0
-370 368 -371 0
370 -368 -371 0
371 -368 -370 0
370 368 371 0
-371 0
297 372 0
298 372 0
300 372 0
362 372 0
363 372 0
299 372 0
301 372 0
302 372 0
365 372 0
-373 0
-374 372 -375 0
374 -372 -375 0
375 -372 -374 0
374 372 375 0
-375 0
297 376 0
298 376 0
300 376 0
363 376 0
299 376 0
301 376 0
302 376 0
365 376 0
-377 0
-378 376 -379 0
378 -376 -379 0
379 -376 -378 0
378 376 379 0
-379 0
297 380 0
298 380 0
300 380 0
299 380 0
301 380 0
302 380 0
365 380 0
-381 0
-382 380 -383 0
382 -380 -383 0
383 -380 -382 0
382 380 383 0
-383 0
384 385 0
386 385 0
387 385 0
388 385 0
389 385 0
390 385 0
391 385 0
392 385 0
393 385 0
-394 0
-15 385 -395 0
15 -385 -395 0
395 -385 -15 0
15 385 395 0
-395 0
386 396 0
387 396 0
388 396 0
389 396 0
390 396 0
391 396 0
392 396 0
393 396 0
-397 0
-398 396 -399 0
398 -396 -399 0
399 -396 -398 0
398 396 399 0
-399 0
387 400 0
388 400 0
389 400 0
390 400 0
391 400 0
392 400 0
393 400 0
-401 0
-402 400 -403 0
402 -400 -403 0
403 -400 -402 0
402 400 403 0
-403 0
388 404 0
389 404 0
390 404 0
391 404 0
392 404 0
393 404 0
-405 0
-406 404 -407 0
406 -404 -407 0
407 -404 -406 0
406 404 407 0
-407 0
389 408 0
390 408 0
391 408 0
392 408 0
393 408 0
-409 0
-410 408 -411 0
410 -408 -411 0
411 -408 -410 0
410 408 411 0
-411 0
389 412 0
391 412 0
392 412 0
393 412 0
390 412 0
-413 0
-414 412 -415 0
414 -412 -415 0
415 -412 -414 0
414 412 415 0
-415 0
-416 412 -417 0
416 -412 -417 0
417 -412 -416 0
416 412 417 0
-417 0
-418 412 -419 0
418 -412 -419 0
419 -412 -418 0
418 412 419 0
-419 0
-420 412 -421 0
420 -412 -421 0
421 -412 -420 0
420 412 421 0
-421 0
422 423 0
424 423 0
425 423 0
426 423 0
427 423 0
428 423 0
429 423 0
430 423 0
431 423 0
432 423 0
433 423 0
434 423 0
-435 0
-16 423 -436 0
16 -423 -436 0
436 -423 -16 0
16 423 436 0
-436 0
424 437 0
425 437 0
426 437 0
427 437 0
428 437 0
429 437 0
430 437 0
431 437 0
432 437 0
433 437 0
434 437 0
-438 0
-439 437 -440 0
439 -437 -440 0
440 -437 -439 0
439 437 440 0
-440 0
425 441 0
426 441 0
427 441 0
428 441 0
429 441 0
430 441 0
431 441 0
432 441 0
433 441 0
434 441 0
-442 0
-443 441 -444 0
443 -441 -444 0
444 -441 -443 0
443 441 444 0
-444 0
426 445 0
427 445 0
428 445 0
429 445 0
430 445 0
431 445 0
432 445 0
433 445 0
434 445 0
-446 0
-447 445 -448 0
447 -445 -448 0
448 -445 -447 0
447 445 448 0
-448 0
427 449 0
428 449 0
429 449 0
430 449 0
431 449 0
432 449 0
433 449 0
434 449 0
-450 0
-451 449 -452 0
451 -449 -452 0
452 -449 -451 0
451 449 452 0
-452 0
428 453 0
429 453 0
430 453 0
431 453 0
432 453 0
433 453 0
434 453 0
-454 0
-455 453 -456 0
455 -453 -456 0
456 -453 -455 0
455 453 456 0
-456 0
429 457 0
430 457 0
431 457 0
432 457 0
433 457 0
434 457 0
-458 0
-459 457 -460 0
459 -457 -460 0
460 -457 -459 0
459 457 460 0
-460 0
429 461 0
430 461 0
432 461 0
433 461 0
434 461 0
431 461 0
-462 0
-463 461 -464 0
463 -461 -464 0
464 -461 -463 0
463 461 464 0
-464 0
-465 461 -466 0
465 -461 -466 0
466 -461 -465 0
465 461 466 0
-466 0
-467 461 -468 0
467 -461 -468 0
468 -461 -467 0
467 461 468 0
-468 0
-469 461 -470 0
469 -461 -470 0
470 -461 -469 0
469 461 470 0
-470 0
-471 461 -472 0
471 -461 -472 0
472 -461 -471 0
471 461 472 0
-472 0
473 474 0
475 474 0
476 474 0
477 474 0
478 474 0
479 474 0
480 474 0
481 474 0
482 474 0
483 474 0
-484 0
-17 474 -485 0
17 -474 -485 0
485 -474 -17 0
17 474 485 0
-485 0
475 486 0
476 486 0
477 486 0
478 486 0
479 486 0
480 486 0
481 486 0
482 486 0
483 486 0
-487 0
-488 486 -489 0
488 -486 -489 0
489 -486 -488 0
488 486 489 0
-489 0
476 490 0
477 490 0
478 490 0
479 490 0
480 490 0
481 490 0
482 490 0
483 490 0
-491 0
-492 490 -493 0
492 -490 -493 0
493 -490 -492 0
492 490 493 0
-493 0
477 494 0
478 494 0
479 494 0
480 494 0
481 494 0
482 494 0
483 494 0
-495 0
-496 494 -497 0
496 -494 -497 0
497 -494 -496 0
496 494 497 0
-497 0
478 498 0
479 498 0
480 498 0
481 498 0
482 498 0
483 498 0
-499 0
-500 498 -501 0
500 -498 -501 0
501 -498 -500 0
500 498 501 0
-501 0
479 502 0
480 502 0
481 502 0
482 502 0
483 502 0
-503 0
-504 502 -505 0
504 -502 -505 0
505 -502 -504 0
504 502 505 0
-505 0
480 506 0
481 506 0
482 506 0
483 506 0
-507 0
-508 506 -509 0
508 -506 -509 0
509 -506 -508 0
508 506 509 0
-509 0
481 510 0
480 510 0
482 510 0
483 510 0
-511 0
-512 510 -513 0
512 -510 -513 0
513 -510 -512 0
512 510 513 0
-513 0
-18 510 -514 0
18 -510 -514 0
514 -510 -18 0
18 510 514 0
-514 0
-515 510 -516 0
515 -510 -516 0
516 -510 -515 0
515 510 516 0
-516 0
97 517 0
98 517 0
518 517 0
519 517 0
520 517 0
521 517 0
96 517 0
99 517 0
522 517 0
-523 0
-19 517 -524 0
19 -517 -524 0
524 -517 -19 0
19 517 524 0
-524 0
97 525 0
98 525 0
519 525 0
520 525 0
521 525 0
96 525 0
99 525 0
522 525 0
-526 0
-527 525 -528 0
527 -525 -528 0
528 -525 -527 0
527 525 528 0
-528 0
97 529 0
98 529 0
520 529 0
521 529 0
96 529 0
99 529 0
522 529 0
-530 0
-531 529 -532 0
531 -529 -532 0
532 -529 -531 0
531 529 532 0
-532 0
97 533 0
98 533 0
521 533 0
96 533 0
99 533 0
522 533 0
-534 0
-535 533 -536 0
535 -533 -536 0
536 -533 -535 0
535 533 536 0
-536 0
97 537 0
98 537 0
96 537 0
99 537 0
522 537 0
-538 0
-539 537 -540 0
539 -537 -540 0
540 -537 -539 0
539 537 540 0
-540 0
541 542 0
543 542 0
544 542 0
545 542 0
546 542 0
-547 0
-20 542 -548 0
20 -542 -548 0
548 -542 -20 0
20 542 548 0
-548 0
543 549 0
544 549 0
545 549 0
546 549 0
-550 0
-551 549 -552 0
551 -549 -552 0
552 -549 -551 0
551 549 552 0
-552 0
544 553 0
545 553 0
546 553 0
-544 -546 -545 -553 0
-554 553 -555 0
554 -553 -555 0
555 -553 -554 0
554 553 555 0
-555 0
545 556 0
546 556 0
-546 -545 -556 0
-557 556 -558 0
557 -556 -558 0
558 -556 -557 0
557 556 558 0
-558 0
559 -546 0
-559 546 0
144 560 0
145 560 0
561 560 0
562 560 0
563 560 0
564 560 0
140 560 0
141 560 0
142 560 0
143 560 0
565 560 0
-566 0
-21 560 -567 0
21 -560 -567 0
567 -560 -21 0
21 560 567 0
-567 0
144 568 0
145 568 0
562 568 0
563 568 0
564 568 0
140 568 0
141 568 0
142 568 0
143 568 0
565 568 0
-569 0
-570 568 -571 0
570 -568 -571 0
571 -568 -570 0
570 568 571 0
-571 0
144 572 0
145 572 0
563 572 0
564 572 0
140 572 0
141 572 0
142 572 0
143 572 0
565 572 0
-573 0
-574 572 -575 0
574 -572 -575 0
575 -572 -574 0
574 572 575 0
-575 0
144 576 0
145 576 0
563 576 0
564 576 0
140 576 0
141 576 0
142 576 0
143 576 0
-577 0
-578 576 -579 0
578 -576 -579 0
579 -576 -578 0
578 576 579 0
-579 0
144 580 0
145 580 0
564 580 0
140 580 0
141 580 0
142 580 0
143 580 0
-581 0
-582 580 -583 0
582 -580 -583 0
583 -580 -582 0
582 580 583 0
-583 0
584 585 0
586 585 0
587 585 0
588 585 0
589 585 0
590 585 0
591 585 0
592 585 0
-593 0
-22 585 -594 0
22 -585 -594 0
594 -585 -22 0
22 585 594 0
-594 0
586 595 0
587 595 0
588 595 0
589 595 0
590 595 0
591 595 0
592 595 0
-596 0
-597 595 -598 0
597 -595 -598 0
598 -595 -597 0
597 595 598 0
-598 0
587 599 0
588 599 0
589 599 0
590 599 0
591 599 0
592 599 0
-600 0
-601 599 -602 0
601 -599 -602 0
602 -599 -601 0
601 599 602 0
-602 0
588 603 0
589 603 0
590 603 0
591 603 0
592 603 0
-604 0
-605 603 -606 0
605 -603 -606 0
606 -603 -605 0
605 603 606 0
-606 0
588 607 0
591 607 0
592 607 0
589 607 0
590 607 0
-608 0
-609 607 -610 0
609 -607 -610 0
610 -607 -609 0
609 607 610 0
-610 0
-611 607 -612 0
611 -607 -612 0
612 -607 -611 0
611 607 612 0
-612 0
-613 607 -614 0
613 -607 -614 0
614 -607 -613 0
613 607 614 0
-614 0
-615 607 -616 0
615 -607 -616 0
616 -607 -615 0
615 607 616 0
-616 0
297 617 0
298 617 0
300 617 0
618 617 0
299 617 0
301 617 0
302 617 0
-619 0
-23 617 -620 0
23 -617 -620 0
620 -617 -23 0
23 617 620 0
-620 0
97 621 0
98 621 0
342 621 0
622 621 0
623 621 0
624 621 0
625 621 0
96 621 0
99 621 0
626 621 0
-627 0
-24 621 -628 0
24 -621 -628 0
628 -621 -24 0
24 621 628 0
-628 0
97 629 0
98 629 0
342 629 0
623 629 0
624 629 0
625 629 0
96 629 0
99 629 0
626 629 0
-630 0
-631 629 -632 0
631 -629 -632 0
632 -629 -631 0
631 629 632 0
-632 0
97 633 0
98 633 0
342 633 0
623 633 0
624 633 0
625 633 0
96 633 0
99 633 0
-634 0
-635 633 -636 0
635 -633 -636 0
636 -633 -635 0
635 633 636 0
-636 0
97 637 0
98 637 0
342 637 0
624 637 0
625 637 0
96 637 0
99 637 0
-638 0
-639 637 -640 0
639 -637 -640 0
640 -637 -639 0
639 637 640 0
-640 0
97 641 0
98 641 0
342 641 0
625 641 0
96 641 0
99 641 0
-642 0
-643 641 -644 0
643 -641 -644 0
644 -641 -643 0
643 641 644 0
-644 0
97 645 0
98 645 0
646 645 0
647 645 0
648 645 0
649 645 0
96 645 0
99 645 0
650 645 0
651 645 0
-652 0
-25 645 -653 0
25 -645 -653 0
653 -645 -25 0
25 645 653 0
-653 0
97 654 0
98 654 0
647 654 0
648 654 0
649 654 0
96 654 0
99 654 0
650 654 0
651 654 0
-655 0
-656 654 -657 0
656 -654 -657 0
657 -654 -656 0
656 654 657 0
-657 0
97 658 0
98 658 0
648 658 0
649 658 0
96 658 0
99 658 0
650 658 0
651 658 0
-659 0
-660 658 -661 0
660 -658 -661 0
661 -658 -660 0
660 658 661 0
-661 0
97 662 0
98 662 0
648 662 0
649 662 0
96 662 0
99 662 0
651 662 0
-663 0
-664 662 -665 0
664 -662 -665 0
665 -662 -664 0
664 662 665 0
-665 0
97 666 0
98 666 0
649 666 0
96 666 0
99 666 0
651 666 0
-667 0
-668 666 -669 0
668 -666 -669 0
669 -666 -668 0
668 666 669 0
-669 0
97 670 0
98 670 0
96 670 0
99 670 0
651 670 0
-671 0
-672 670 -673 0
672 -670 -673 0
673 -670 -672 0
672 670 673 0
-673 0
481 674 0
675 674 0
676 674 0
480 674 0
482 674 0
483 674 0
677 674 0
678 674 0
-679 0
-26 674 -680 0
26 -674 -680 0
680 -674 -26 0
26 674 680 0
-680 0
481 681 0
675 681 0
676 681 0
480 681 0
482 681 0
483 681 0
678 681 0
-682 0
-683 681 -684 0
683 -681 -684 0
684 -681 -683 0
683 681 684 0
-684 0
481 685 0
676 685 0
480 685 0
482 685 0
483 685 0
678 685 0
-686 0
-687 685 -688 0
687 -685 -688 0
688 -685 -687 0
687 685 688 0
-688 0
481 689 0
676 689 0
480 689 0
482 689 0
483 689 0
-690 0
-691 689 -692 0
691 -689 -692 0
692 -689 -691 0
691 689 692 0
-692 0
481 693 0
694 693 0
695 693 0
696 693 0
697 693 0
698 693 0
699 693 0
480 693 0
482 693 0
483 693 0
700 693 0
701 693 0
702 693 0
-703 0
-27 693 -704 0
27 -693 -704 0
704 -693 -27 0
27 693 704 0
-704 0
481 705 0
694 705 0
695 705 0
696 705 0
697 705 0
698 705 0
699 705 0
480 705 0
482 705 0
483 705 0
701 705 0
702 705 0
-706 0
-707 705 -708 0
707 -705 -708 0
708 -705 -707 0
707 705 708 0
-708 0
481 709 0
695 709 0
696 709 0
697 709 0
698 709 0
699 709 0
480 709 0
482 709 0
483 709 0
701 709 0
702 709 0
-710 0
-711 709 -712 0
711 -709 -712 0
712 -709 -711 0
711 709 712 0
-712 0
481 713 0
696 713 0
697 713 0
698 713 0
699 713 0
480 713 0
482 713 0
483 713 0
701 713 0
702 713 0
-714 0
-28 713 -715 0
28 -713 -715 0
715 -713 -28 0
28 713 715 0
-715 0
481 716 0
697 716 0
698 716 0
699 716 0
480 716 0
482 716 0
483 716 0
701 716 0
702 716 0
-717 0
-718 716 -719 0
718 -716 -719 0
719 -716 -718 0
718 716 719 0
-719 0
481 720 0
698 720 0
699 720 0
480 720 0
482 720 0
483 720 0
701 720 0
702 720 0
-721 0
-722 720 -723 0
722 -720 -723 0
723 -720 -722 0
722 720 723 0
-723 0
481 724 0
699 724 0
480 724 0
482 724 0
483 724 0
701 724 0
702 724 0
-725 0
-726 724 -727 0
726 -724 -727 0
727 -724 -726 0
726 724 727 0
-727 0
481 728 0
699 728 0
480 728 0
482 728 0
483 728 0
702 728 0
-729 0
-730 728 -731 0
730 -728 -731 0
731 -728 -730 0
730 728 731 0
-731 0
481 732 0
480 732 0
482 732 0
483 732 0
702 732 0
-733 0
-734 732 -735 0
734 -732 -735 0
735 -732 -734 0
734 732 735 0
-735 0
97 736 0
98 736 0
737 736 0
96 736 0
99 736 0
651 736 0
738 736 0
739 736 0
-740 0
-29 736 -741 0
29 -736 -741 0
741 -736 -29 0
29 736 741 0
-741 0
97 742 0
98 742 0
737 742 0
96 742 0
99 742 0
651 742 0
739 742 0
-743 0
-744 742 -745 0
744 -742 -745 0
745 -742 -744 0
744 742 745 0
-745 0
97 746 0
98 746 0
96 746 0
99 746 0
651 746 0
739 746 0
-747 0
-748 746 -749 0
748 -746 -749 0
749 -746 -748 0
748 746 749 0
-749 0
97 750 0
98 750 0
96 750 0
99 750 0
522 750 0
751 750 0
-752 0
-30 750 -753 0
30 -750 -753 0
753 -750 -30 0
30 750 753 0
-753 0
93 754 0
94 754 0
95 754 0
97 754 0
98 754 0
96 754 0
99 754 0
755 754 0
-756 0
-31 754 -757 0
31 -754 -757 0
757 -754 -31 0
31 754 757 0
-757 0
758 759 0
760 759 0
761 759 0
51 759 0
762 759 0
-763 0
-32 759 -764 0
32 -759 -764 0
764 -759 -32 0
32 759 764 0
-764 0
760 765 0
761 765 0
51 765 0
762 765 0
-766 0
-767 765 -768 0
767 -765 -768 0
768 -765 -767 0
767 765 768 0
-768 0
760 769 0
761 769 0
51 769 0
-760 -761 -51 -769 0
-770 769 -771 0
770 -769 -771 0
771 -769 -770 0
770 769 771 0
-771 0
761 772 0
51 772 0
-761 -51 -772 0
-773 772 -774 0
773 -772 -774 0
774 -772 -773 0
773 772 774 0
-774 0
761 775 0
776 775 0
777 775 0
51 775 0
778 775 0
779 775 0
-780 0
-33 775 -781 0
33 -775 -781 0
781 -775 -33 0
33 775 781 0
-781 0
761 782 0
777 782 0
51 782 0
778 782 0
779 782 0
-783 0
-784 782 -785 0
784 -782 -785 0
785 -782 -784 0
784 782 785 0
-785 0
761 786 0
777 786 0
51 786 0
779 786 0
-787 0
-788 786 -789 0
788 -786 -789 0
789 -786 -788 0
788 786 789 0
-789 0
761 790 0
51 790 0
779 790 0
-761 -51 -779 -790 0
-791 790 -792 0
791 -790 -792 0
792 -790 -791 0
791 790 792 0
-792 0
95 793 0
97 793 0
98 793 0
794 793 0
795 793 0
96 793 0
99 793 0
796 793 0
797 793 0
-798 0
-34 793 -799 0
34 -793 -799 0
799 -793 -34 0
34 793 799 0
-799 0
95 800 0
97 800 0
98 800 0
795 800 0
96 800 0
99 800 0
796 800 0
797 800 0
-801 0
-802 800 -803 0
802 -800 -803 0
803 -800 -802 0
802 800 803 0
-803 0
95 804 0
97 804 0
98 804 0
96 804 0
99 804 0
796 804 0
797 804 0
-805 0
-806 804 -807 0
806 -804 -807 0
807 -804 -806 0
806 804 807 0
-807 0
95 808 0
97 808 0
98 808 0
96 808 0
99 808 0
797 808 0
-809 0
-810 808 -811 0
810 -808 -811 0
811 -808 -810 0
810 808 811 0
-811 0
812 813 0
814 813 0
189 813 0
191 813 0
192 813 0
193 813 0
194 813 0
195 813 0
-815 0
-35 813 -816 0
35 -813 -816 0
816 -813 -35 0
35 813 816 0
-816 0
814 817 0
189 817 0
191 817 0
192 817 0
193 817 0
194 817 0
195 817 0
-818 0
-819 817 -820 0
819 -817 -820 0
820 -817 -819 0
819 817 820 0
-820 0
144 821 0
145 821 0
822 821 0
140 821 0
141 821 0
142 821 0
143 821 0
823 821 0
824 821 0
-825 0
-36 821 -826 0
36 -821 -826 0
826 -821 -36 0
36 821 826 0
-826 0
144 827 0
145 827 0
822 827 0
140 827 0
141 827 0
142 827 0
143 827 0
824 827 0
-828 0
-829 827 -830 0
829 -827 -830 0
830 -827 -829 0
829 827 830 0
-830 0
144 831 0
145 831 0
140 831 0
141 831 0
142 831 0
143 831 0
824 831 0
-832 0
-833 831 -834 0
833 -831 -834 0
834 -831 -833 0
833 831 834 0
-834 0
389 835 0
391 835 0
392 835 0
393 835 0
836 835 0
837 835 0
390 835 0
838 835 0
839 835 0
-840 0
-37 835 -841 0
37 -835 -841 0
841 -835 -37 0
37 835 841 0
-841 0
389 842 0
391 842 0
392 842 0
393 842 0
836 842 0
837 842 0
390 842 0
839 842 0
-843 0
-844 842 -845 0
844 -842 -845 0
845 -842 -844 0
844 842 845 0
-845 0
389 846 0
391 846 0
392 846 0
393 846 0
837 846 0
390 846 0
839 846 0
-847 0
-848 846 -849 0
848 -846 -849 0
849 -846 -848 0
848 846 849 0
-849 0
389 850 0
391 850 0
392 850 0
393 850 0
390 850 0
839 850 0
-851 0
-852 850 -853 0
852 -850 -853 0
853 -850 -852 0
852 850 853 0
-853 0
479 854 0
481 854 0
478 854 0
480 854 0
482 854 0
483 854 0
855 854 0
856 854 0
-857 0
-38 854 -858 0
38 -854 -858 0
858 -854 -38 0
38 854 858 0
-858 0
479 859 0
481 859 0
478 859 0
480 859 0
482 859 0
483 859 0
856 859 0
-860 0
-861 859 -862 0
861 -859 -862 0
862 -859 -861 0
861 859 862 0
-862 0
863 864 0
865 864 0
866 864 0
867 864 0
868 864 0
869 864 0
870 864 0
871 864 0
872 864 0
-873 0
-39 864 -874 0
39 -864 -874 0
874 -864 -39 0
39 864 874 0
-874 0
865 875 0
866 875 0
867 875 0
868 875 0
869 875 0
870 875 0
871 875 0
872 875 0
-876 0
-877 875 -878 0
877 -875 -878 0
878 -875 -877 0
877 875 878 0
-878 0
866 879 0
867 879 0
868 879 0
869 879 0
870 879 0
871 879 0
872 879 0
-880 0
-881 879 -882 0
881 -879 -882 0
882 -879 -881 0
881 879 882 0
-882 0
867 883 0
868 883 0
869 883 0
870 883 0
871 883 0
872 883 0
-884 0
-885 883 -886 0
885 -883 -886 0
886 -883 -885 0
885 883 886 0
-886 0
868 887 0
869 887 0
870 887 0
871 887 0
872 887 0
-888 0
-889 887 -890 0
889 -887 -890 0
890 -887 -889 0
889 887 890 0
-890 0
869 891 0
870 891 0
871 891 0
872 891 0
-892 0
-893 891 -894 0
893 -891 -894 0
894 -891 -893 0
893 891 894 0
-894 0
870 895 0
871 895 0
872 895 0
869 895 0
-896 0
-897 895 -898 0
897 -895 -898 0
898 -895 -897 0
897 895 898 0
-898 0
-899 895 -900 0
899 -895 -900 0
900 -895 -899 0
899 895 900 0
-900 0
-40 895 -901 0
40 -895 -901 0
901 -895 -40 0
40 895 901 0
-901 0
902 903 0
904 903 0
905 903 0
906 903 0
907 903 0
908 903 0
909 903 0
910 903 0
911 903 0
912 903 0
913 903 0
267 903 0
268 903 0
-914 0
-41 903 -915 0
41 -903 -915 0
915 -903 -41 0
41 903 915 0
-915 0
904 916 0
905 916 0
906 916 0
907 916 0
908 916 0
909 916 0
910 916 0
911 916 0
912 916 0
913 916 0
267 916 0
268 916 0
-917 0
-918 916 -919 0
918 -916 -919 0
919 -916 -918 0
918 916 919 0
-919 0
905 920 0
906 920 0
907 920 0
908 920 0
909 920 0
910 920 0
911 920 0
912 920 0
913 920 0
267 920 0
268 920 0
-921 0
-922 920 -923 0
922 -920 -923 0
923 -920 -922 0
922 920 923 0
-923 0
906 924 0
907 924 0
908 924 0
909 924 0
910 924 0
911 924 0
912 924 0
913 924 0
267 924 0
268 924 0
-925 0
-926 924 -927 0
926 -924 -927 0
927 -924 -926 0
926 924 927 0
-927 0
907 928 0
908 928 0
909 928 0
910 928 0
911 928 0
912 928 0
913 928 0
267 928 0
268 928 0
-929 0
-930 928 -931 0
930 -928 -931 0
931 -928 -930 0
930 928 931 0
-931 0
908 932 0
909 932 0
910 932 0
911 932 0
912 932 0
913 932 0
267 932 0
268 932 0
-933 0
-934 932 -935 0
934 -932 -935 0
935 -932 -934 0
934 932 935 0
-935 0
909 936 0
910 936 0
911 936 0
912 936 0
913 936 0
267 936 0
268 936 0
-937 0
-938 936 -939 0
938 -936 -939 0
939 -936 -938 0
938 936 939 0
-939 0
910 940 0
911 940 0
912 940 0
913 940 0
267 940 0
268 940 0
-941 0
-942 940 -943 0
942 -940 -943 0
943 -940 -942 0
942 940 943 0
-943 0
911 944 0
912 944 0
913 944 0
267 944 0
268 944 0
-945 0
-946 944 -947 0
946 -944 -947 0
947 -944 -946 0
946 944 947 0
-947 0
912 948 0
913 948 0
267 948 0
268 948 0
-949 0
-950 948 -951 0
950 -948 -951 0
951 -948 -950 0
950 948 951 0
-951 0
913 952 0
267 952 0
268 952 0
-268 -913 -267 -952 0
-953 952 -954 0
953 -952 -954 0
954 -952 -953 0
953 952 954 0
-954 0
870 955 0
871 955 0
872 955 0
956 955 0
957 955 0
869 955 0
958 955 0
959 955 0
960 955 0
-961 0
-42 955 -962 0
42 -955 -962 0
962 -955 -42 0
42 955 962 0
-962 0
870 963 0
871 963 0
872 963 0
956 963 0
957 963 0
869 963 0
959 963 0
960 963 0
-964 0
-965 963 -966 0
965 -963 -966 0
966 -963 -965 0
965 963 966 0
-966 0
870 967 0
871 967 0
872 967 0
957 967 0
869 967 0
959 967 0
960 967 0
-968 0
-969 967 -970 0
969 -967 -970 0
970 -967 -969 0
969 967 970 0
-970 0
870 971 0
871 971 0
872 971 0
957 971 0
869 971 0
960 971 0
-972 0
-973 971 -974 0
973 -971 -974 0
974 -971 -973 0
973 971 974 0
-974 0
870 975 0
871 975 0
872 975 0
869 975 0
960 975 0
-976 0
-977 975 -978 0
977 -975 -978 0
978 -975 -977 0
977 975 978 0
-978 0
760 979 0
761 979 0
980 979 0
51 979 0
-981 0
-43 979 -982 0
43 -979 -982 0
982 -979 -43 0
43 979 982 0
-982 0
97 983 0
98 983 0
649 983 0
96 983 0
99 983 0
651 983 0
984 983 0
-985 0
-44 983 -986 0
44 -983 -986 0
986 -983 -44 0
44 983 986 0
-986 0
481 987 0
699 987 0
988 987 0
989 987 0
480 987 0
482 987 0
483 987 0
702 987 0
990 987 0
991 987 0
992 987 0
993 987 0
-994 0
-45 987 -995 0
45 -987 -995 0
995 -987 -45 0
45 987 995 0
-995 0
481 996 0
699 996 0
988 996 0
989 996 0
480 996 0
482 996 0
483 996 0
702 996 0
991 996 0
992 996 0
993 996 0
-997 0
-998 996 -999 0
998 -996 -999 0
999 -996 -998 0
998 996 999 0
-999 0
481 1000 0
699 1000 0
988 1000 0
989 1000 0
480 1000 0
482 1000 0
483 1000 0
702 1000 0
992 1000 0
993 1000 0
-1001 0
-1002 1000 -1003 0
1002 -1000 -1003 0
1003 -1000 -1002 0
1002 1000 1003 0
-1003 0
481 1004 0
699 1004 0
988 1004 0
989 1004 0
480 1004 0
482 1004 0
483 1004 0
702 1004 0
993 1004 0
-1005 0
-1006 1004 -1007 0
1006 -1004 -1007 0
1007 -1004 -1006 0
1006 1004 1007 0
-1007 0
481 1008 0
699 1008 0
988 1008 0
989 1008 0
480 1008 0
482 1008 0
483 1008 0
702 1008 0
-1009 0
-1010 1008 -1011 0
1010 -1008 -1011 0
1011 -1008 -1010 0
1010 1008 1011 0
-1011 0
481 1012 0
699 1012 0
989 1012 0
480 1012 0
482 1012 0
483 1012 0
702 1012 0
-1013 0
-1014 1012 -1015 0
1014 -1012 -1015 0
1015 -1012 -1014 0
1014 1012 1015 0
-1015 0
58 1016 0
61 1016 0
1017 1016 0
1018 1016 0
1019 1016 0
57 1016 0
59 1016 0
60 1016 0
1020 1016 0
-1021 0
-46 1016 -1022 0
46 -1016 -1022 0
1022 -1016 -46 0
46 1016 1022 0
-1022 0
58 1023 0
61 1023 0
1017 1023 0
1018 1023 0
1019 1023 0
57 1023 0
59 1023 0
60 1023 0
-1024 0
-1025 1023 -1026 0
1025 -1023 -1026 0
1026 -1023 -1025 0
1025 1023 1026 0
-1026 0
58 1027 0
61 1027 0
1018 1027 0
1019 1027 0
57 1027 0
59 1027 0
60 1027 0
-1028 0
-1029 1027 -1030 0
1029 -1027 -1030 0
1030 -1027 -1029 0
1029 1027 1030 0
-1030 0
58 1031 0
61 1031 0
1019 1031 0
57 1031 0
59 1031 0
60 1031 0
-1032 0
-1033 1031 -1034 0
1033 -1031 -1034 0
1034 -1031 -1033 0
1033 1031 1034 0
-1034 0
481 1035 0
695 1035 0
696 1035 0
697 1035 0
698 1035 0
699 1035 0
1036 1035 0
480 1035 0
482 1035 0
483 1035 0
701 1035 0
702 1035 0
1037 1035 0
-1038 0
-47 1035 -1039 0
47 -1035 -1039 0
1039 -1035 -47 0
47 1035 1039 0
-1039 0
481 1040 0
695 1040 0
696 1040 0
697 1040 0
698 1040 0
699 1040 0
480 1040 0
482 1040 0
483 1040 0
701 1040 0
702 1040 0
1037 1040 0
-1041 0
-1042 1040 -1043 0
1042 -1040 -1043 0
1043 -1040 -1042 0
1042 1040 1043 0
-1043 0
97 1044 0
98 1044 0
342 1044 0
1045 1044 0
1046 1044 0
96 1044 0
99 1044 0
343 1044 0
344 1044 0
345 1044 0
-1047 0
-48 1044 -1048 0
48 -1044 -1048 0
1048 -1044 -48 0
48 1044 1048 0
-1048 0
97 1049 0
98 1049 0
342 1049 0
1046 1049 0
96 1049 0
99 1049 0
343 1049 0
344 1049 0
345 1049 0
-1050 0
-1051 1049 -1052 0
1051 -1049 -1052 0
1052 -1049 -1051 0
1051 1049 1052 0
-1052 0
144 1053 0
145 1053 0
822 1053 0
1054 1053 0
140 1053 0
141 1053 0
142 1053 0
143 1053 0
823 1053 0
824 1053 0
-1055 0
-49 1053 -1056 0
49 -1053 -1056 0
1056 -1053 -49 0
49 1053 1056 0
-1056 0
191 1057 0
192 1057 0
1058 1057 0
193 1057 0
194 1057 0
195 1057 0
-1059 0
-50 1057 -1060 0
50 -1057 -1060 0
1060 -1057 -50 0
50 1057 1060 0
-1060 0
51 -1061 0
-1061 -52 0
54 -1061 0
55 -1061 0
56 -1061 0
57 -1061 0
-1061 -58 0
59 -1061 0
60 -1061 0
-1061 -61 0
89 -1061 0
91 -1061 0
-1061 -92 0
-1061 -93 0
-1061 -94 0
-1061 -95 0
96 -1061 0
-1061 -97 0
-1061 -98 0
99 -1061 0
134 -1061 0
136 -1061 0
-1061 -137 0
138 -1061 0
139 -1061 0
140 -1061 0
141 -1061 0
142 -1061 0
143 -1061 0
-1061 -144 0
-1061 -145 0
-1061 -181 0
-1061 -182 0
-1061 -189 0
-1061 -191 0
-1061 -192 0
193 -1061 0
194 -1061 0
195 -1061 0
210 -1061 0
-1061 -212 0
213 -1061 0
-1061 -214 0
215 -1061 0
-1061 -216 0
217 -1061 0
-1061 -218 0
-1061 -219 0
-1061 -220 0
-1061 -221 0
222 -1061 0
-1061 -261 0
-1061 -263 0
-1061 -264 0
265 -1061 0
266 -1061 0
267 -1061 0
-1061 -268 0
-1061 -290 0
-1061 -292 0
293 -1061 0
-1061 -294 0
-1061 -295 0
-1061 -296 0
-1061 -297 0
-1061 -298 0
299 -1061 0
-1061 -300 0
301 -1061 0
302 -1061 0
343 -1061 0
344 -1061 0
345 -1061 0
-1061 -342 0
364 -1061 0
-1061 -361 0
-1061 -362 0
-1061 -363 0
365 -1061 0
384 -1061 0
-1061 -386 0
-1061 -387 0
388 -1061 0
-1061 -389 0
390 -1061 0
-1061 -391 0
-1061 -392 0
-1061 -393 0
-1061 -422 0
-1061 -424 0
-1061 -425 0
426 -1061 0
-1061 -427 0
428 -1061 0
-1061 -429 0
-1061 -430 0
431 -1061 0
-1061 -432 0
-1061 -433 0
-1061 -434 0
473 -1061 0
475 -1061 0
-1061 -476 0
-1061 -477 0
478 -1061 0
-1061 -479 0
480 -1061 0
-1061 -481 0
482 -1061 0
483 -1061 0
-1061 -518 0
-1061 -519 0
-1061 -520 0
-1061 -521 0
522 -1061 0
-1061 -541 0
-1061 -543 0
-1061 -544 0
545 -1061 0
-1061 -546 0
-1061 -561 0
-1061 -562 0
565 -1061 0
-1061 -563 0
-1061 -564 0
-1061 -584 0
-1061 -586 0
587 -1061 0
-1061 -588 0
589 -1061 0
590 -1061 0
-1061 -591 0
-1061 -592 0
-1061 -618 0
-1061 -622 0
626 -1061 0
-1061 -623 0
-1061 -624 0
-1061 -625 0
-1061 -646 0
-1061 -647 0
650 -1061 0
-1061 -648 0
-1061 -649 0
651 -1061 0
677 -1061 0
-1061 -675 0
678 -1061 0
-1061 -676 0
700 -1061 0
-1061 -694 0
-1061 -695 0
-1061 -696 0
-1061 -697 0
-1061 -698 0
701 -1061 0
-1061 -699 0
702 -1061 0
738 -1061 0
-1061 -737 0
739 -1061 0
751 -1061 0
755 -1061 0
-1061 -758 0
762 -1061 0
-1061 -760 0
-1061 -761 0
-1061 -776 0
778 -1061 0
-1061 -777 0
779 -1061 0
-1061 -794 0
-1061 -795 0
796 -1061 0
797 -1061 0
812 -1061 0
-1061 -814 0
823 -1061 0
-1061 -822 0
824 -1061 0
838 -1061 0
-1061 -836 0
-1061 -837 0
839 -1061 0
855 -1061 0
856 -1061 0
-1061 -863 0
865 -1061 0
-1061 -866 0
867 -1061 0
868 -1061 0
869 -1061 0
-1061 -870 0
-1061 -871 0
-1061 -872 0
902 -1061 0
904 -1061 0
-1061 -905 0
-1061 -906 0
907 -1061 0
908 -1061 0
909 -1061 0
910 -1061 0
-1061 -911 0
912 -1061 0
-1061 -913 0
958 -1061 0
-1061 -956 0
959 -1061 0
-1061 -957 0
960 -1061 0
-1061 -980 0
984 -1061 0
990 -1061 0
991 -1061 0
992 -1061 0
993 -1061 0
-1061 -988 0
-1061 -989 0
1020 -1061 0
-1061 -1017 0
-1061 -1018 0
-1061 -1019 0
-1061 -1036 0
1037 -1061 0
-1061 -1045 0
-1061 -1046 0
-1061 -1054 0
-1061 -1058 0
1061 0
-1062 0
-1063 0
-1064 0
-1065 0
-1066 0
-1067 0
-1068 0
-1069 0
